n=30;
t=40;
profit=[2 1 3 8 2 7 5 9 3 10 7 3 3 2 4 8 10 2 2 2 1 4 10 4 2 2 5 6 2 4];
length=[3 4 4 2 1 5 5 2 1 3 4 5 1 5 4 1 4 5 4 5 3 4 5 5 3 4 5 5 3 3];
min_deliver=[9 21 18 19 37 37 22 19 19 37 19 11 4 36 6 1 13 28 17 6 22 28 36 15 33 18 28 32 14 35];
max_deliver=[10 26 23 23 39 40 24 20 23 37 19 11 6 37 7 2 15 31 18 6 22 29 37 19 33 20 28 32 15 39];
surface=[2 5 2 2 1 2 2 4 2 4 4 2 4 3 1 1 2 1 3 1 3 5 2 5 3 3 1 3 1 2];
surface_capacity=10;
